/* Objective function */
max: +420 C1 +360 C2 +300 C3 +420 C4 +360 C5 +300 C6 +420 C7 +360 C8 +300 C9;

/* Constraints */
+C1 +C2 +C3 <= 750;
+C4 +C5 +C6 <= 900;
+C7 +C8 +C9 <= 450;
+20 C1 +15 C2 +12 C3 <= 13000;
+20 C4 +15 C5 +12 C6 <= 12000;
+20 C7 +15 C8 +12 C9 <= 5000;
+C1 +C2 +C3 <= 900;
+C4 +C5 +C6 <= 1200;
+C7 +C8 +C9 <= 750;
